7
0, 147, 606, 366, 223, 230, 316
147, 0, 639, 485, 194, 347, 237
606, 639, 0, 872, 815, 777, 877
366, 485, 872, 0, 389, 138, 492
223, 194, 815, 389, 0, 271, 112
230, 347, 777, 138, 271, 0, 381
316, 237, 877, 492, 112, 381, 0
